SATISFIABLE
SATISFIABLE
UNSATISFIABLE
UNSATISFIABLE
UNSATISFIABLE
UNSATISFIABLE
UNSATISFIABLE
UNSATISFIABLE
UNSATISFIABLE
SATISFIABLE
SATISFIABLE
SATISFIABLE
SATISFIABLE
UNSATISFIABLE
UNSATISFIABLE
UNSATISFIABLE
UNSATISFIABLE
SATISFIABLE
